
Log started (V22.2.0.0) Tue Jun  9 08:33:15 2026

New value for time limit in seconds: 120
New value for default parallel thread count: 4
New value for mixed integer optimality gap tolerance: 0.001
New value for level of mixed integer node display: 2

Problem 'results/InstanceB11_bigm_finsteps123.lp' read.
Read time = 0.01 sec. (0.67 ticks)
Version identifier: 22.2.0.0 | 2026-05-04 | 5dff98e58
CPXPARAM_Threads                                 4
CPXPARAM_TimeLimit                               120
CPXPARAM_MIP_Tolerances_MIPGap                   0.001
Tried aggregator 2 times.
MIP Presolve eliminated 55 rows and 51 columns.
MIP Presolve modified 52957 coefficients.
Aggregator did 385 substitutions.
Reduced MIP has 6809 rows, 3636 columns, and 20014 nonzeros.
Reduced MIP has 3251 binaries, 0 generals, 0 SOSs, and 0 indicators.
Presolve time = 0.02 sec. (28.05 ticks)
Found incumbent of value 75.000000 after 0.03 sec. (42.25 ticks)
Probing time = 0.01 sec. (4.67 ticks)
Tried aggregator 1 time.
Detecting symmetries...
MIP Presolve modified 23 coefficients.
Reduced MIP has 6809 rows, 3636 columns, and 20014 nonzeros.
Reduced MIP has 3251 binaries, 0 generals, 0 SOSs, and 0 indicators.
Presolve time = 0.01 sec. (11.06 ticks)
Probing time = 0.00 sec. (4.33 ticks)
Clique table members: 2547.
MIP emphasis: balance optimality and feasibility.
MIP search method: dynamic search.
Parallel mode: deterministic, using up to 4 threads.
Root relaxation solution time = 0.03 sec. (211.22 ticks)

        Nodes                                         Cuts/
   Node  Left     Objective  IInf  Best Integer    Best Bound    ItCnt     Gap

*     0+    0                           75.0000       22.0000            70.67%
*     0+    0                           72.0000       22.0000            69.44%
      0     0       22.0000    36       72.0000       22.0000     2875   69.44%
      0     0       22.0172    28       72.0000      Cuts: 46     3018   69.42%
      0     0       23.0000    29       72.0000      Cuts: 78     3081   68.06%
      0     0       23.0000    33       72.0000      Cuts: 61     3138   68.06%
*     0+    0                           23.0000       23.0000             0.00%
      0     0        cutoff             23.0000       23.0000     3144    0.00%
Elapsed time = 0.19 sec. (456.56 ticks, tree = 0.01 MB, solutions = 3)

Clique cuts applied:  26
Implied bound cuts applied:  37
Flow cuts applied:  1
Mixed integer rounding cuts applied:  57

Root node processing (before b&c):
  Real time             =    0.19 sec. (456.82 ticks)
Parallel b&c, 4 threads:
  Real time             =    0.00 sec. (0.00 ticks)
  Sync time (average)   =    0.00 sec.
  Wait time (average)   =    0.00 sec.
                          ------------
Total (root+branch&cut) =    0.19 sec. (456.82 ticks)

Solution pool: 3 solutions saved.

MIP - Integer optimal solution:  Objective =  2.3000000000e+01
Solution time =    0.20 sec.  Iterations = 3144  Nodes = 0
Deterministic time = 456.83 ticks  (2334.61 ticks/sec)


Incumbent solution written to file 'results/InstanceB11_bigm_finsteps123.sol'.
